networks/zoo_176_6127/zoo_176_6127.txt
Number of groups: 86
Flow 3: {6 5} {5 4} {4 92} 
Flow 5: {8 7} {7 6} {6 94} 
Flow 15: {44 26} {26 23} {23 24} {24 16} {16 104} 
Flow 26: {27 48} {48 28} {28 116} 
Flow 29: {31 52} {52 33} {33 79} {79 32} {32 120} 
Flow 34: {4 3} {3 75} {75 43} {43 37} {37 125} 
Flow 36: {45 77} {77 78} {78 46} {46 39} {39 127} 
Flow 38: {82 42} {42 73} {73 41} {41 129} 
Flow 54: {50 57} {57 145} 
Flow 55: {58 146} 
Flow 60: {17 64} {64 152} 
Flow 62: {64 63} {63 66} {66 65} {65 68} {68 156} 
Flow 74: {81 82} {82 170} 
Flow 82: {1 38} {38 10} {10 98} 
Flow 176: {80 32} {32 79} {79 167} 
Flow 187: {38 1} {1 29} {29 2} {2 90} 
Flow 237: {51 54} {54 53} {53 56} {56 55} {55 143} 
Flow 393: {22 21} {21 80} {80 168} 
Flow 404: {3 91} 
Flow 509: {33 88} {88 34} {34 122} 
Flow 835: {59 62} {62 150} 
Flow 839: {68 67} {67 155} 
Flow 960: {48 27} {27 23} {23 111} 
Flow 987: {69 51} {51 139} 
Flow 1264: {11 12} {12 100} 
Flow 1293: {18 57} {57 50} {50 49} {49 137} 
Flow 1295: {56 53} {53 141} 
Flow 1665: {46 134} 
Flow 1712: {7 8} {8 12} {12 9} {9 97} 
Flow 1725: {23 26} {26 114} 
Flow 1726: {24 23} {23 27} {27 115} 
Flow 1745: {16 48} {48 136} 
Flow 2280: {87 86} {86 85} {85 84} {84 172} 
Flow 2446: {29 1} {1 89} 
Flow 2532: {10 9} {9 12} {12 8} {8 96} 
Flow 2803: {39 40} {40 71} {71 159} 
Flow 2918: {73 42} {42 47} {47 74} {74 162} 
Flow 2948: {55 58} {58 18} {18 106} 
Flow 2959: {52 31} {31 30} {30 2} {2 29} {29 117} 
Flow 3013: {85 86} {86 174} 
Flow 3072: {43 75} {75 163} 
Flow 3168: {75 3} {3 4} {4 5} {5 93} 
Flow 3249: {5 6} {6 7} {7 95} 
Flow 3270: {30 118} 
Flow 3312: {40 39} {39 46} {46 78} {78 166} 
Flow 3357: {86 87} {87 35} {35 123} 
Flow 3395: {26 44} {44 25} {25 76} {76 164} 
Flow 3404: {60 84} {84 85} {85 173} 
Flow 3452: {47 135} 
Flow 3545: {66 63} {63 151} 
Flow 3671: {70 43} {43 131} 
Flow 3770: {15 67} {67 68} {68 65} {65 66} {66 154} 
Flow 3803: {9 10} {10 38} {38 126} 
Flow 3949: {25 44} {44 45} {45 133} 
Flow 4148: {32 80} {80 21} {21 109} 
Flow 4151: {14 28} {28 48} {48 16} {16 24} {24 112} 
Flow 4296: {36 35} {35 87} {87 175} 
Flow 4310: {63 64} {64 17} {17 61} {61 13} {13 101} 
Flow 4356: {61 149} 
Flow 4361: {54 51} {51 69} {69 70} {70 158} 
Flow 4579: {57 18} {18 58} {58 55} {55 56} {56 144} 
Flow 4632: {2 30} {30 31} {31 119} 
Flow 4643: {28 14} {14 74} {74 47} {47 42} {42 130} 
Flow 4651: {67 15} {15 49} {49 50} {50 138} 
Flow 4654: {53 54} {54 142} 
Flow 4693: {13 62} {62 59} {59 11} {11 99} 
Flow 4812: {79 33} {33 52} {52 140} 
Flow 5320: {34 36} {36 124} 
Flow 5381: {76 37} {37 43} {43 20} {20 19} {19 107} 
Flow 5422: {71 72} {72 41} {41 73} {73 161} 
Flow 5429: {42 82} {82 81} {81 83} {83 171} 
Flow 5455: {19 22} {22 110} 
Flow 5476: {77 45} {45 44} {44 132} 
Flow 5534: {37 76} {76 25} {25 113} 
Flow 5670: {74 14} {14 102} 
Flow 5791: {83 60} {60 148} 
Flow 5804: {78 77} {77 165} 
Flow 5814: {35 36} {36 34} {34 88} {88 176} 
Flow 5831: {62 13} {13 61} {61 17} {17 105} 
Flow 5871: {12 11} {11 59} {59 147} 
Flow 5888: {84 60} {60 83} {83 81} {81 169} 
Flow 5907: {49 15} {15 103} 
Flow 5964: {41 72} {72 71} {71 40} {40 128} 
Flow 5998: {88 33} {33 121} 
Flow 6065: {21 22} {22 19} {19 20} {20 108} 
Flow 6110: {20 43} {43 70} {70 69} {69 157} 
Time taken running everything: 536 seconds
