networks/zoo_176_6127/zoo_176_6127.sol
<?xml version = "1.0" encoding="UTF-8" standalone="yes"?>
<CPLEXSolution version="1.2">
 <header
   problemName="networks/zoo_176_6127/zoo_176_6127.lp"
   solutionName="incumbent"
   solutionIndex="-1"
   objectiveValue="86"
   solutionTypeValue="3"
   solutionTypeString="primal"
   solutionStatusValue="101"
   solutionStatusString="integer optimal solution"
   solutionMethodString="mip"
   primalFeasible="1"
   dualFeasible="1"
   MIPNodes="1158"
   MIPIterations="350599"
   writeLevel="3"/>
 <quality
   epInt="1.0000000000000001e-05"
   epRHS="9.9999999999999995e-07"
   maxIntInfeas="1.844080443902385e-13"
   maxPrimalInfeas="9.2204022195119251e-13"
   maxX="4"
   maxSlack="10"/>
 <variables>
  <variable name="Y(3,4)" index="351" value="1.0000000000001843"/>
  <variable name="Y(5,6)" index="701" value="1"/>
  <variable name="Y(15,16)" index="2451" value="1"/>
  <variable name="Y(26,28)" index="4377" value="1"/>
  <variable name="Y(29,32)" index="4903" value="1"/>
  <variable name="Y(34,37)" index="5778" value="1"/>
  <variable name="Y(36,39)" index="6128" value="1"/>
  <variable name="Y(38,41)" index="6478" value="1"/>
  <variable name="Y(54,57)" index="9278" value="1"/>
  <variable name="Y(55,58)" index="9453" value="1"/>
  <variable name="Y(60,64)" index="10329" value="1"/>
  <variable name="Y(62,68)" index="10681" value="1"/>
  <variable name="Y(74,82)" index="12783" value="1"/>
  <variable name="Y(82,10)" index="14103" value="1"/>
  <variable name="Y(176,79)" index="30528" value="1"/>
  <variable name="Y(187,2)" index="32365" value="1"/>
  <variable name="Y(237,55)" index="41118" value="1"/>
  <variable name="Y(325,4)" index="56379" value="-1.844080443902385e-13"/>
  <variable name="Y(393,80)" index="68287" value="1"/>
  <variable name="Y(404,3)" index="70124" value="1"/>
  <variable name="Y(509,34)" index="88425" value="1"/>
  <variable name="Y(835,62)" index="145177" value="1"/>
  <variable name="Y(839,67)" index="145878" value="1"/>
  <variable name="Y(960,23)" index="166888" value="1"/>
  <variable name="Y(987,51)" index="171614" value="1"/>
  <variable name="Y(1264,12)" index="219773" value="1"/>
  <variable name="Y(1293,49)" index="224856" value="1"/>
  <variable name="Y(1295,53)" index="225208" value="1"/>
  <variable name="Y(1665,46)" index="289581" value="1"/>
  <variable name="Y(1712,9)" index="297722" value="1"/>
  <variable name="Y(1725,26)" index="300001" value="1"/>
  <variable name="Y(1726,27)" index="300176" value="1"/>
  <variable name="Y(1745,48)" index="303503" value="1"/>
  <variable name="Y(2280,84)" index="396629" value="1"/>
  <variable name="Y(2446,1)" index="425430" value="1"/>
  <variable name="Y(2532,8)" index="440401" value="1"/>
  <variable name="Y(2803,71)" index="487618" value="1"/>
  <variable name="Y(2918,74)" index="507631" value="1"/>
  <variable name="Y(2948,18)" index="512795" value="1"/>
  <variable name="Y(2959,29)" index="514720" value="1"/>
  <variable name="Y(3013,86)" index="524173" value="1"/>
  <variable name="Y(3072,75)" index="534428" value="0.99999999999999978"/>
  <variable name="Y(3168,5)" index="551062" value="1"/>
  <variable name="Y(3249,7)" index="565158" value="1"/>
  <variable name="Y(3270,30)" index="568835" value="1"/>
  <variable name="Y(3312,78)" index="576191" value="1"/>
  <variable name="Y(3357,35)" index="583978" value="1"/>
  <variable name="Y(3395,76)" index="590631" value="1"/>
  <variable name="Y(3404,85)" index="592206" value="1"/>
  <variable name="Y(3452,47)" index="600520" value="1"/>
  <variable name="Y(3545,63)" index="616718" value="1"/>
  <variable name="Y(3671,43)" index="638622" value="1"/>
  <variable name="Y(3770,66)" index="655871" value="1"/>
  <variable name="Y(3803,38)" index="661585" value="1"/>
  <variable name="Y(3949,45)" index="686996" value="1"/>
  <variable name="Y(4148,21)" index="721598" value="1"/>
  <variable name="Y(4151,24)" index="722123" value="1"/>
  <variable name="Y(4296,87)" index="747416" value="1"/>
  <variable name="Y(4310,13)" index="749778" value="1"/>
  <variable name="Y(4356,61)" index="757830" value="1"/>
  <variable name="Y(4361,70)" index="758709" value="1"/>
  <variable name="Y(4579,56)" index="796627" value="1"/>
  <variable name="Y(4632,31)" index="805824" value="1"/>
  <variable name="Y(4643,42)" index="807749" value="1"/>
  <variable name="Y(4651,50)" index="809149" value="1"/>
  <variable name="Y(4654,54)" index="809675" value="1"/>
  <variable name="Y(4693,11)" index="816418" value="1"/>
  <variable name="Y(4812,52)" index="837165" value="1"/>
  <variable name="Y(5320,36)" index="925541" value="1"/>
  <variable name="Y(5381,19)" index="936138" value="1"/>
  <variable name="Y(5422,73)" index="943326" value="1"/>
  <variable name="Y(5429,83)" index="944554" value="1"/>
  <variable name="Y(5455,22)" index="949017" value="1"/>
  <variable name="Y(5476,44)" index="952693" value="1"/>
  <variable name="Y(5534,25)" index="962766" value="1"/>
  <variable name="Y(5670,14)" index="986419" value="1"/>
  <variable name="Y(5791,60)" index="1007519" value="0.99999999999999978"/>
  <variable name="Y(5804,77)" index="1009798" value="1"/>
  <variable name="Y(5814,88)" index="1011549" value="1"/>
  <variable name="Y(5831,17)" index="1014436" value="1"/>
  <variable name="Y(5871,59)" index="1021438" value="1"/>
  <variable name="Y(5888,81)" index="1024418" value="1"/>
  <variable name="Y(5907,15)" index="1027658" value="1"/>
  <variable name="Y(5964,40)" index="1037601" value="1"/>
  <variable name="Y(5998,33)" index="1043510" value="1"/>
  <variable name="Y(6065,20)" index="1055155" value="1"/>
  <variable name="Y(6110,69)" index="1063034" value="1"/>
  <variable name="X(1,29,187)" index="1066284" value="1"/>
  <variable name="X(1,38,82)" index="1072306" value="1"/>
  <variable name="X(1,89,2446)" index="1080797" value="1"/>
  <variable name="X(2,29,2959)" index="1087437" value="1"/>
  <variable name="X(2,30,4632)" index="1095237" value="1"/>
  <variable name="X(2,90,187)" index="1096919" value="1"/>
  <variable name="X(3,4,3168)" index="1106027" value="1"/>
  <variable name="X(3,75,34)" index="1109020" value="1"/>
  <variable name="X(3,91,404)" index="1115517" value="1"/>
  <variable name="X(4,3,34)" index="1121274" value="1"/>
  <variable name="X(4,5,3168)" index="1130535" value="1"/>
  <variable name="X(4,92,3)" index="1133497" value="1.0000000000001843"/>
  <variable name="X(4,92,325)" index="1133819" value="-1.844080443902385e-13"/>
  <variable name="X(5,4,3)" index="1139624" value="1"/>
  <variable name="X(5,6,3249)" index="1148997" value="1"/>
  <variable name="X(5,93,3168)" index="1155043" value="1"/>
  <variable name="X(6,5,3)" index="1158005" value="1"/>
  <variable name="X(6,7,3249)" index="1167378" value="1"/>
  <variable name="X(6,94,5)" index="1170261" value="1"/>
  <variable name="X(7,6,5)" index="1176388" value="1"/>
  <variable name="X(7,8,1712)" index="1184222" value="1"/>
  <variable name="X(7,95,3249)" index="1191886" value="1"/>
  <variable name="X(8,7,5)" index="1194769" value="1"/>
  <variable name="X(8,12,1712)" index="1202603" value="1"/>
  <variable name="X(8,96,2532)" index="1209550" value="1"/>
  <variable name="X(9,10,3803)" index="1216948" value="1"/>
  <variable name="X(9,12,2532)" index="1221804" value="1"/>
  <variable name="X(9,97,1712)" index="1227111" value="1"/>
  <variable name="X(10,9,2532)" index="1234058" value="1"/>
  <variable name="X(10,38,3803)" index="1241456" value="1"/>
  <variable name="X(10,98,82)" index="1243862" value="1"/>
  <variable name="X(11,12,1264)" index="1251171" value="1"/>
  <variable name="X(11,59,5871)" index="1261905" value="1"/>
  <variable name="X(11,99,4693)" index="1266854" value="1"/>
  <variable name="X(12,8,2532)" index="1270820" value="1"/>
  <variable name="X(12,9,1712)" index="1276127" value="1"/>
  <variable name="X(12,11,5871)" index="1286413" value="1"/>
  <variable name="X(12,100,1264)" index="1287933" value="1"/>
  <variable name="X(13,61,5831)" index="1298627" value="1"/>
  <variable name="X(13,62,4693)" index="1303616" value="1"/>
  <variable name="X(13,101,4310)" index="1309360" value="1"/>
  <variable name="X(14,28,4151)" index="1315328" value="1"/>
  <variable name="X(14,74,4643)" index="1321947" value="1"/>
  <variable name="X(14,102,5670)" index="1329101" value="1"/>
  <variable name="X(15,49,4651)" index="1334209" value="1"/>
  <variable name="X(15,67,3770)" index="1339455" value="1"/>
  <variable name="X(15,103,5907)" index="1347719" value="1"/>
  <variable name="X(16,24,4151)" index="1352090" value="1"/>
  <variable name="X(16,48,1745)" index="1355811" value="1"/>
  <variable name="X(16,104,15)" index="1360208" value="1"/>
  <variable name="X(17,61,4310)" index="1370630" value="1"/>
  <variable name="X(17,64,60)" index="1372507" value="1"/>
  <variable name="X(17,105,5831)" index="1384405" value="1"/>
  <variable name="X(18,57,1293)" index="1385994" value="1"/>
  <variable name="X(18,58,4579)" index="1395407" value="1"/>
  <variable name="X(18,106,2948)" index="1399903" value="1"/>
  <variable name="X(19,20,6065)" index="1409147" value="1"/>
  <variable name="X(19,22,5455)" index="1414664" value="1"/>
  <variable name="X(19,107,5381)" index="1420717" value="1"/>
  <variable name="X(20,19,5381)" index="1426844" value="1"/>
  <variable name="X(20,43,6110)" index="1433700" value="1"/>
  <variable name="X(20,108,6065)" index="1439782" value="1"/>
  <variable name="X(21,22,6065)" index="1445909" value="1"/>
  <variable name="X(21,80,393)" index="1446364" value="1"/>
  <variable name="X(21,109,4148)" index="1456246" value="1"/>
  <variable name="X(22,19,6065)" index="1464290" value="1"/>
  <variable name="X(22,21,393)" index="1464745" value="1"/>
  <variable name="X(22,110,5455)" index="1475934" value="1"/>
  <variable name="X(23,24,15)" index="1476621" value="1"/>
  <variable name="X(23,26,1725)" index="1484458" value="1"/>
  <variable name="X(23,27,1726)" index="1490586" value="1"/>
  <variable name="X(23,111,960)" index="1495947" value="1"/>
  <variable name="X(24,16,15)" index="1501129" value="1"/>
  <variable name="X(24,23,1726)" index="1508967" value="1"/>
  <variable name="X(24,112,4151)" index="1517519" value="1"/>
  <variable name="X(25,44,3949)" index="1523444" value="1"/>
  <variable name="X(25,76,3395)" index="1529017" value="1"/>
  <variable name="X(25,113,5534)" index="1537283" value="1"/>
  <variable name="X(26,23,15)" index="1537891" value="1"/>
  <variable name="X(26,44,3395)" index="1547398" value="1"/>
  <variable name="X(26,114,1725)" index="1551855" value="1"/>
  <variable name="X(27,23,960)" index="1557217" value="1"/>
  <variable name="X(27,48,26)" index="1562410" value="1"/>
  <variable name="X(27,115,1726)" index="1570237" value="1"/>
  <variable name="X(28,14,4643)" index="1579281" value="1"/>
  <variable name="X(28,48,4151)" index="1584916" value="1"/>
  <variable name="X(28,116,26)" index="1586918" value="1"/>
  <variable name="X(29,1,2446)" index="1595465" value="1"/>
  <variable name="X(29,2,187)" index="1599333" value="1"/>
  <variable name="X(29,117,2959)" index="1608232" value="1"/>
  <variable name="X(30,2,2959)" index="1614359" value="1"/>
  <variable name="X(30,31,4632)" index="1622159" value="1"/>
  <variable name="X(30,118,3270)" index="1626924" value="1"/>
  <variable name="X(31,30,2959)" index="1632740" value="1"/>
  <variable name="X(31,52,29)" index="1635937" value="1"/>
  <variable name="X(31,119,4632)" index="1646667" value="1"/>
  <variable name="X(32,79,176)" index="1648338" value="1"/>
  <variable name="X(32,80,4148)" index="1658437" value="1"/>
  <variable name="X(32,120,29)" index="1660445" value="1"/>
  <variable name="X(33,52,4812)" index="1671355" value="1"/>
  <variable name="X(33,79,29)" index="1672699" value="1"/>
  <variable name="X(33,88,509)" index="1679306" value="1"/>
  <variable name="X(33,121,5998)" index="1690922" value="1"/>
  <variable name="X(34,36,5320)" index="1696371" value="1"/>
  <variable name="X(34,88,5814)" index="1702992" value="1"/>
  <variable name="X(34,122,509)" index="1703814" value="1"/>
  <variable name="X(35,36,5814)" index="1715246" value="1"/>
  <variable name="X(35,87,4296)" index="1719855" value="1"/>
  <variable name="X(35,123,3357)" index="1725043" value="1"/>
  <variable name="X(36,34,5814)" index="1733627" value="1"/>
  <variable name="X(36,35,4296)" index="1738236" value="1"/>
  <variable name="X(36,124,5320)" index="1745387" value="1"/>
  <variable name="X(37,43,5381)" index="1751575" value="1"/>
  <variable name="X(37,76,5534)" index="1757855" value="1"/>
  <variable name="X(37,125,34)" index="1758482" value="1"/>
  <variable name="X(38,1,187)" index="1764762" value="1"/>
  <variable name="X(38,10,82)" index="1770784" value="1"/>
  <variable name="X(38,126,3803)" index="1780632" value="1"/>
  <variable name="X(39,40,2803)" index="1785759" value="1"/>
  <variable name="X(39,46,3312)" index="1792395" value="1"/>
  <variable name="X(39,127,36)" index="1795246" value="1"/>
  <variable name="X(40,39,3312)" index="1804649" value="1"/>
  <variable name="X(40,71,2803)" index="1810267" value="1"/>
  <variable name="X(40,128,5964)" index="1819555" value="1"/>
  <variable name="X(41,72,5964)" index="1825682" value="1"/>
  <variable name="X(41,73,5422)" index="1831267" value="1"/>
  <variable name="X(41,129,38)" index="1832010" value="1"/>
  <variable name="X(42,47,2918)" index="1841017" value="1"/>
  <variable name="X(42,73,38)" index="1844264" value="1"/>
  <variable name="X(42,82,5429)" index="1855782" value="1"/>
  <variable name="X(42,130,4643)" index="1861123" value="1"/>
  <variable name="X(43,20,5381)" index="1867988" value="1"/>
  <variable name="X(43,37,34)" index="1868768" value="1"/>
  <variable name="X(43,70,6110)" index="1880971" value="1"/>
  <variable name="X(43,75,3072)" index="1884060" value="1"/>
  <variable name="X(43,131,3671)" index="1890786" value="1"/>
  <variable name="X(44,25,3395)" index="1896637" value="1"/>
  <variable name="X(44,26,15)" index="1899384" value="1"/>
  <variable name="X(44,45,3949)" index="1909445" value="1"/>
  <variable name="X(44,132,5476)" index="1917099" value="1"/>
  <variable name="X(45,44,5476)" index="1923226" value="1"/>
  <variable name="X(45,77,36)" index="1923913" value="1"/>
  <variable name="X(45,133,3949)" index="1933953" value="1"/>
  <variable name="X(46,39,36)" index="1936167" value="1"/>
  <variable name="X(46,78,3312)" index="1945570" value="1"/>
  <variable name="X(46,134,1665)" index="1950050" value="1"/>
  <variable name="X(47,42,4643)" index="1959155" value="1"/>
  <variable name="X(47,74,2918)" index="1963557" value="1"/>
  <variable name="X(47,135,3452)" index="1970218" value="1"/>
  <variable name="X(48,16,4151)" index="1977044" value="1"/>
  <variable name="X(48,27,960)" index="1979980" value="1"/>
  <variable name="X(48,28,26)" index="1985173" value="1"/>
  <variable name="X(48,136,1745)" index="1993019" value="1"/>
  <variable name="X(49,15,5907)" index="2003308" value="1"/>
  <variable name="X(49,50,4651)" index="2008179" value="1"/>
  <variable name="X(49,137,1293)" index="2010948" value="1"/>
  <variable name="X(50,49,1293)" index="2017075" value="1"/>
  <variable name="X(50,57,54)" index="2021963" value="1"/>
  <variable name="X(50,138,4651)" index="2032687" value="1"/>
  <variable name="X(51,54,237)" index="2034400" value="1"/>
  <variable name="X(51,69,4361)" index="2044651" value="1"/>
  <variable name="X(51,139,987)" index="2047404" value="1"/>
  <variable name="X(52,31,2959)" index="2055503" value="1"/>
  <variable name="X(52,33,29)" index="2058700" value="1"/>
  <variable name="X(52,140,4812)" index="2069610" value="1"/>
  <variable name="X(53,54,4654)" index="2075579" value="1"/>
  <variable name="X(53,56,237)" index="2077289" value="1"/>
  <variable name="X(53,141,1295)" index="2084474" value="1"/>
  <variable name="X(54,51,4361)" index="2093667" value="1"/>
  <variable name="X(54,53,237)" index="2095670" value="1"/>
  <variable name="X(54,142,4654)" index="2106214" value="1"/>
  <variable name="X(55,56,4579)" index="2112266" value="1"/>
  <variable name="X(55,58,2948)" index="2116762" value="1"/>
  <variable name="X(55,143,237)" index="2120178" value="1"/>
  <variable name="X(56,53,1295)" index="2127363" value="1"/>
  <variable name="X(56,55,237)" index="2132432" value="1"/>
  <variable name="X(56,144,4579)" index="2142901" value="1"/>
  <variable name="X(57,18,4579)" index="2149028" value="1"/>
  <variable name="X(57,50,1293)" index="2151869" value="1"/>
  <variable name="X(57,145,54)" index="2156757" value="1"/>
  <variable name="X(58,18,2948)" index="2165778" value="1"/>
  <variable name="X(58,55,4579)" index="2173536" value="1"/>
  <variable name="X(58,146,55)" index="2175139" value="1"/>
  <variable name="X(59,11,4693)" index="2185904" value="1"/>
  <variable name="X(59,62,835)" index="2188173" value="1"/>
  <variable name="X(59,147,5871)" index="2199336" value="1"/>
  <variable name="X(60,83,5888)" index="2205480" value="1"/>
  <variable name="X(60,84,3404)" index="2209123" value="1"/>
  <variable name="X(60,148,5791)" index="2217637" value="0.99999999999999978"/>
  <variable name="X(61,13,4310)" index="2222283" value="1"/>
  <variable name="X(61,17,5831)" index="2229931" value="1"/>
  <variable name="X(61,149,4356)" index="2234583" value="1"/>
  <variable name="X(62,13,5831)" index="2242185" value="1"/>
  <variable name="X(62,59,4693)" index="2247174" value="1"/>
  <variable name="X(62,150,835)" index="2249443" value="1"/>
  <variable name="X(63,64,4310)" index="2259045" value="1"/>
  <variable name="X(63,66,62)" index="2260924" value="1"/>
  <variable name="X(63,151,3545)" index="2270534" value="1"/>
  <variable name="X(64,17,4310)" index="2277426" value="1"/>
  <variable name="X(64,63,62)" index="2279305" value="1"/>
  <variable name="X(64,152,60)" index="2285430" value="1"/>
  <variable name="X(65,66,3770)" index="2295267" value="1"/>
  <variable name="X(65,68,62)" index="2297686" value="1"/>
  <variable name="X(66,63,3545)" index="2307296" value="1"/>
  <variable name="X(66,65,62)" index="2309940" value="1"/>
  <variable name="X(66,154,3770)" index="2319775" value="1"/>
  <variable name="X(67,15,4651)" index="2326783" value="1"/>
  <variable name="X(67,68,3770)" index="2332029" value="1"/>
  <variable name="X(67,155,839)" index="2335225" value="1"/>
  <variable name="X(68,65,3770)" index="2344283" value="1"/>
  <variable name="X(68,67,839)" index="2347479" value="1"/>
  <variable name="X(68,156,62)" index="2352829" value="1"/>
  <variable name="X(69,51,987)" index="2359881" value="1"/>
  <variable name="X(69,70,4361)" index="2369382" value="1"/>
  <variable name="X(69,157,6110)" index="2377258" value="1"/>
  <variable name="X(70,43,3671)" index="2380946" value="1"/>
  <variable name="X(70,69,6110)" index="2389512" value="1"/>
  <variable name="X(70,158,4361)" index="2393890" value="1"/>
  <variable name="X(71,40,5964)" index="2401620" value="1"/>
  <variable name="X(71,72,5422)" index="2407205" value="1"/>
  <variable name="X(71,159,2803)" index="2410713" value="1"/>
  <variable name="X(72,41,5422)" index="2419459" value="1"/>
  <variable name="X(72,71,5964)" index="2426128" value="1"/>
  <variable name="X(73,41,38)" index="2426329" value="1"/>
  <variable name="X(73,42,2918)" index="2435336" value="1"/>
  <variable name="X(73,161,5422)" index="2443967" value="1"/>
  <variable name="X(74,14,5670)" index="2450342" value="1"/>
  <variable name="X(74,47,4643)" index="2455442" value="1"/>
  <variable name="X(74,162,2918)" index="2459844" value="1"/>
  <variable name="X(75,3,3168)" index="2466221" value="1"/>
  <variable name="X(75,43,34)" index="2469214" value="1"/>
  <variable name="X(75,163,3072)" index="2478379" value="0.99999999999999978"/>
  <variable name="X(76,25,5534)" index="2486968" value="1"/>
  <variable name="X(76,37,5381)" index="2492942" value="1"/>
  <variable name="X(76,164,3395)" index="2497083" value="1"/>
  <variable name="X(77,45,5476)" index="2505291" value="1"/>
  <variable name="X(77,78,36)" index="2505978" value="1"/>
  <variable name="X(77,165,5804)" index="2517873" value="1"/>
  <variable name="X(78,46,36)" index="2518232" value="1"/>
  <variable name="X(78,77,5804)" index="2530127" value="1"/>
  <variable name="X(78,166,3312)" index="2533762" value="1"/>
  <variable name="X(79,32,29)" index="2536606" value="1"/>
  <variable name="X(79,33,4812)" index="2547516" value="1"/>
  <variable name="X(79,167,176)" index="2549007" value="1"/>
  <variable name="X(80,21,4148)" index="2559106" value="1"/>
  <variable name="X(80,32,176)" index="2561261" value="1"/>
  <variable name="X(80,168,393)" index="2567605" value="1"/>
  <variable name="X(81,82,74)" index="2573413" value="1"/>
  <variable name="X(81,83,5429)" index="2584895" value="1"/>
  <variable name="X(81,169,5888)" index="2591481" value="1"/>
  <variable name="X(82,42,38)" index="2591758" value="1"/>
  <variable name="X(82,81,5429)" index="2603276" value="1"/>
  <variable name="X(82,170,74)" index="2604048" value="1"/>
  <variable name="X(83,60,5791)" index="2615892" value="1"/>
  <variable name="X(83,81,5888)" index="2622116" value="1"/>
  <variable name="X(83,171,5429)" index="2627784" value="1"/>
  <variable name="X(84,60,5888)" index="2634370" value="1"/>
  <variable name="X(84,85,3404)" index="2638013" value="1"/>
  <variable name="X(84,172,2280)" index="2643016" value="1"/>
  <variable name="X(85,84,2280)" index="2649143" value="1"/>
  <variable name="X(85,86,3013)" index="2656003" value="1"/>
  <variable name="X(85,173,3404)" index="2662521" value="1"/>
  <variable name="X(86,85,2280)" index="2667524" value="1"/>
  <variable name="X(86,87,3357)" index="2674728" value="1"/>
  <variable name="X(86,174,3013)" index="2680511" value="1"/>
  <variable name="X(87,35,3357)" index="2686982" value="1"/>
  <variable name="X(87,86,2280)" index="2692032" value="1"/>
  <variable name="X(87,175,4296)" index="2700175" value="1"/>
  <variable name="X(88,33,5998)" index="2708004" value="1"/>
  <variable name="X(88,34,509)" index="2708642" value="1"/>
  <variable name="X(88,176,5814)" index="2720074" value="1"/>
  <variable name="C(3,5)" index="2720410" value="1"/>
  <variable name="C(3,4)" index="2720411" value="2"/>
  <variable name="C(5,7)" index="2720427" value="1"/>
  <variable name="C(5,6)" index="2720428" value="2"/>
  <variable name="C(15,26)" index="2720527" value="1.0000000000000033"/>
  <variable name="C(15,23)" index="2720528" value="2"/>
  <variable name="C(15,24)" index="2720529" value="3"/>
  <variable name="C(15,16)" index="2720530" value="4"/>
  <variable name="C(26,48)" index="2720705" value="1"/>
  <variable name="C(26,28)" index="2720706" value="2"/>
  <variable name="C(29,52)" index="2720721" value="1.0000000000000031"/>
  <variable name="C(29,33)" index="2720722" value="2"/>
  <variable name="C(29,79)" index="2720723" value="3"/>
  <variable name="C(29,32)" index="2720724" value="4"/>
  <variable name="C(34,3)" index="2720772" value="1"/>
  <variable name="C(34,75)" index="2720773" value="2"/>
  <variable name="C(34,43)" index="2720774" value="3"/>
  <variable name="C(34,37)" index="2720775" value="4"/>
  <variable name="C(36,77)" index="2720796" value="1.0000000000000027"/>
  <variable name="C(36,78)" index="2720797" value="2"/>
  <variable name="C(36,46)" index="2720798" value="3"/>
  <variable name="C(36,39)" index="2720799" value="4"/>
  <variable name="C(38,42)" index="2720842" value="1"/>
  <variable name="C(38,73)" index="2720843" value="2"/>
  <variable name="C(38,41)" index="2720844" value="3"/>
  <variable name="C(54,57)" index="2721131" value="1"/>
  <variable name="C(60,64)" index="2721210" value="1"/>
  <variable name="C(62,63)" index="2721237" value="1.0000000000000027"/>
  <variable name="C(62,66)" index="2721238" value="2"/>
  <variable name="C(62,65)" index="2721239" value="3"/>
  <variable name="C(62,68)" index="2721240" value="4"/>
  <variable name="C(74,82)" index="2721442" value="1"/>
  <variable name="C(82,38)" index="2721537" value="1"/>
  <variable name="C(82,10)" index="2721538" value="2"/>
  <variable name="C(176,32)" index="2722644" value="1"/>
  <variable name="C(176,79)" index="2722645" value="2"/>
  <variable name="C(187,1)" index="2722809" value="1"/>
  <variable name="C(187,29)" index="2722810" value="2"/>
  <variable name="C(187,2)" index="2722811" value="3"/>
  <variable name="C(237,54)" index="2723313" value="1.0000000000000031"/>
  <variable name="C(237,53)" index="2723314" value="2"/>
  <variable name="C(237,56)" index="2723315" value="3"/>
  <variable name="C(237,55)" index="2723316" value="4"/>
  <variable name="C(393,21)" index="2725177" value="1"/>
  <variable name="C(393,80)" index="2725178" value="2"/>
  <variable name="C(509,88)" index="2726593" value="1"/>
  <variable name="C(509,34)" index="2726594" value="2"/>
  <variable name="C(835,62)" index="2730945" value="1"/>
  <variable name="C(839,67)" index="2730985" value="1"/>
  <variable name="C(960,27)" index="2732898" value="1"/>
  <variable name="C(960,23)" index="2732899" value="2"/>
  <variable name="C(987,51)" index="2733202" value="1"/>
  <variable name="C(1264,12)" index="2737599" value="1"/>
  <variable name="C(1293,57)" index="2738067" value="1"/>
  <variable name="C(1293,50)" index="2738068" value="2"/>
  <variable name="C(1293,49)" index="2738069" value="3"/>
  <variable name="C(1295,53)" index="2738081" value="1"/>
  <variable name="C(1712,8)" index="2742959" value="1"/>
  <variable name="C(1712,12)" index="2742960" value="2"/>
  <variable name="C(1712,9)" index="2742961" value="3"/>
  <variable name="C(1725,26)" index="2743112" value="1"/>
  <variable name="C(1726,23)" index="2743114" value="1"/>
  <variable name="C(1726,27)" index="2743115" value="2"/>
  <variable name="C(1745,48)" index="2743318" value="1"/>
  <variable name="C(2280,86)" index="2750267" value="1"/>
  <variable name="C(2280,85)" index="2750268" value="2"/>
  <variable name="C(2280,84)" index="2750269" value="3"/>
  <variable name="C(2446,1)" index="2752355" value="1"/>
  <variable name="C(2532,9)" index="2753549" value="1"/>
  <variable name="C(2532,12)" index="2753550" value="2"/>
  <variable name="C(2532,8)" index="2753551" value="3"/>
  <variable name="C(2803,40)" index="2757033" value="1"/>
  <variable name="C(2803,71)" index="2757034" value="2"/>
  <variable name="C(2918,42)" index="2758738" value="1"/>
  <variable name="C(2918,47)" index="2758739" value="2"/>
  <variable name="C(2918,74)" index="2758740" value="3"/>
  <variable name="C(2948,58)" index="2759220" value="1"/>
  <variable name="C(2948,18)" index="2759221" value="2"/>
  <variable name="C(2959,31)" index="2759351" value="1.0000000000000036"/>
  <variable name="C(2959,30)" index="2759352" value="2"/>
  <variable name="C(2959,2)" index="2759353" value="3"/>
  <variable name="C(2959,29)" index="2759354" value="4"/>
  <variable name="C(3013,86)" index="2760135" value="1"/>
  <variable name="C(3072,75)" index="2760702" value="1"/>
  <variable name="C(3168,3)" index="2761796" value="1"/>
  <variable name="C(3168,4)" index="2761797" value="2"/>
  <variable name="C(3168,5)" index="2761798" value="3"/>
  <variable name="C(3249,6)" index="2762811" value="1"/>
  <variable name="C(3249,7)" index="2762812" value="2"/>
  <variable name="C(3312,39)" index="2763757" value="1"/>
  <variable name="C(3312,46)" index="2763758" value="2"/>
  <variable name="C(3312,78)" index="2763759" value="3"/>
  <variable name="C(3357,87)" index="2764327" value="1"/>
  <variable name="C(3357,35)" index="2764328" value="2"/>
  <variable name="C(3395,44)" index="2764856" value="1"/>
  <variable name="C(3395,25)" index="2764857" value="2"/>
  <variable name="C(3395,76)" index="2764858" value="3"/>
  <variable name="C(3404,84)" index="2764949" value="1"/>
  <variable name="C(3404,85)" index="2764950" value="2"/>
  <variable name="C(3545,63)" index="2767326" value="1"/>
  <variable name="C(3671,43)" index="2769062" value="1"/>
  <variable name="C(3770,67)" index="2770278" value="1"/>
  <variable name="C(3770,68)" index="2770279" value="2"/>
  <variable name="C(3770,65)" index="2770280" value="3"/>
  <variable name="C(3770,66)" index="2770281" value="4"/>
  <variable name="C(3803,10)" index="2770767" value="1"/>
  <variable name="C(3803,38)" index="2770768" value="2"/>
  <variable name="C(3949,44)" index="2772961" value="1"/>
  <variable name="C(3949,45)" index="2772962" value="2"/>
  <variable name="C(4148,80)" index="2776026" value="1"/>
  <variable name="C(4148,21)" index="2776027" value="2"/>
  <variable name="C(4151,28)" index="2776063" value="1.0000000000000027"/>
  <variable name="C(4151,48)" index="2776064" value="2"/>
  <variable name="C(4151,16)" index="2776065" value="3"/>
  <variable name="C(4151,24)" index="2776066" value="4"/>
  <variable name="C(4296,35)" index="2778216" value="1"/>
  <variable name="C(4296,87)" index="2778217" value="2"/>
  <variable name="C(4310,64)" index="2778375" value="1.0000000000000031"/>
  <variable name="C(4310,17)" index="2778376" value="2"/>
  <variable name="C(4310,61)" index="2778377" value="3"/>
  <variable name="C(4310,13)" index="2778378" value="4"/>
  <variable name="C(4361,51)" index="2779280" value="1"/>
  <variable name="C(4361,69)" index="2779281" value="2"/>
  <variable name="C(4361,70)" index="2779282" value="3"/>
  <variable name="C(4579,18)" index="2783355" value="1"/>
  <variable name="C(4579,58)" index="2783356" value="2"/>
  <variable name="C(4579,55)" index="2783357" value="3"/>
  <variable name="C(4579,56)" index="2783358" value="4"/>
  <variable name="C(4632,30)" index="2784321" value="1"/>
  <variable name="C(4632,31)" index="2784322" value="2"/>
  <variable name="C(4643,14)" index="2784578" value="1.0000000000000027"/>
  <variable name="C(4643,74)" index="2784579" value="2"/>
  <variable name="C(4643,47)" index="2784580" value="3"/>
  <variable name="C(4643,42)" index="2784581" value="4"/>
  <variable name="C(4651,15)" index="2784713" value="1"/>
  <variable name="C(4651,49)" index="2784714" value="2"/>
  <variable name="C(4651,50)" index="2784715" value="3"/>
  <variable name="C(4654,54)" index="2784748" value="1"/>
  <variable name="C(4693,62)" index="2785427" value="1"/>
  <variable name="C(4693,59)" index="2785428" value="2"/>
  <variable name="C(4693,11)" index="2785429" value="3"/>
  <variable name="C(4812,33)" index="2787276" value="1"/>
  <variable name="C(4812,52)" index="2787277" value="2"/>
  <variable name="C(5320,36)" index="2793893" value="1"/>
  <variable name="C(5381,37)" index="2794616" value="1"/>
  <variable name="C(5381,43)" index="2794617" value="2"/>
  <variable name="C(5381,20)" index="2794618" value="3"/>
  <variable name="C(5381,19)" index="2794619" value="4"/>
  <variable name="C(5422,72)" index="2795095" value="1"/>
  <variable name="C(5422,41)" index="2795096" value="2"/>
  <variable name="C(5422,73)" index="2795097" value="3"/>
  <variable name="C(5429,82)" index="2795175" value="1"/>
  <variable name="C(5429,81)" index="2795176" value="2"/>
  <variable name="C(5429,83)" index="2795177" value="3"/>
  <variable name="C(5455,22)" index="2795565" value="1"/>
  <variable name="C(5476,45)" index="2795786" value="1"/>
  <variable name="C(5476,44)" index="2795787" value="2"/>
  <variable name="C(5534,76)" index="2796529" value="1"/>
  <variable name="C(5534,25)" index="2796530" value="2"/>
  <variable name="C(5670,14)" index="2798284" value="1"/>
  <variable name="C(5791,60)" index="2800138" value="1"/>
  <variable name="C(5804,77)" index="2800385" value="1"/>
  <variable name="C(5814,36)" index="2800454" value="1"/>
  <variable name="C(5814,34)" index="2800455" value="2"/>
  <variable name="C(5814,88)" index="2800456" value="3"/>
  <variable name="C(5831,13)" index="2800778" value="1"/>
  <variable name="C(5831,61)" index="2800779" value="2"/>
  <variable name="C(5831,17)" index="2800780" value="3"/>
  <variable name="C(5871,11)" index="2801376" value="1"/>
  <variable name="C(5871,59)" index="2801377" value="2"/>
  <variable name="C(5888,60)" index="2801647" value="1"/>
  <variable name="C(5888,83)" index="2801648" value="2"/>
  <variable name="C(5888,81)" index="2801649" value="3"/>
  <variable name="C(5907,15)" index="2801905" value="1"/>
  <variable name="C(5964,72)" index="2802699" value="1"/>
  <variable name="C(5964,71)" index="2802700" value="2"/>
  <variable name="C(5964,40)" index="2802701" value="3"/>
  <variable name="C(5998,33)" index="2803188" value="1"/>
  <variable name="C(6065,22)" index="2804103" value="1"/>
  <variable name="C(6065,19)" index="2804104" value="2"/>
  <variable name="C(6065,20)" index="2804105" value="3"/>
  <variable name="C(6110,43)" index="2804703" value="1"/>
  <variable name="C(6110,70)" index="2804704" value="2"/>
  <variable name="C(6110,69)" index="2804705" value="3"/>
 </variables>
</CPLEXSolution>
